original problem has 7195 variables (7195 bin, 0 int, 0 impl, 0 cont) and 426 constraints
1/1 feasible solution given by solution candidate storage, new primal bound 2.637400e+04

presolving:
   (0.0s) running MILP presolver
   (0.1s) MILP presolver (2 rounds): 0 aggregations, 0 fixings, 0 bound changes
(round 1, exhaustive) 0 del vars, 18 del conss, 0 add conss, 0 chg bounds, 0 chg sides, 0 chg coeffs, 0 upgd conss, 0 impls, 408 clqs
(round 2, exhaustive) 0 del vars, 18 del conss, 0 add conss, 0 chg bounds, 0 chg sides, 0 chg coeffs, 408 upgd conss, 0 impls, 408 clqs
(round 3, medium)     2 del vars, 18 del conss, 0 add conss, 0 chg bounds, 2 chg sides, 2 chg coeffs, 408 upgd conss, 0 impls, 408 clqs
(round 4, exhaustive) 711 del vars, 68 del conss, 0 add conss, 0 chg bounds, 2 chg sides, 2 chg coeffs, 408 upgd conss, 0 impls, 355 clqs
(round 5, fast)       711 del vars, 71 del conss, 0 add conss, 0 chg bounds, 2 chg sides, 2 chg coeffs, 408 upgd conss, 0 impls, 355 clqs
(round 6, medium)     720 del vars, 71 del conss, 0 add conss, 0 chg bounds, 11 chg sides, 11 chg coeffs, 408 upgd conss, 0 impls, 355 clqs
(round 7, exhaustive) 1006 del vars, 82 del conss, 0 add conss, 0 chg bounds, 11 chg sides, 11 chg coeffs, 408 upgd conss, 0 impls, 343 clqs
(round 8, fast)       1006 del vars, 83 del conss, 0 add conss, 0 chg bounds, 11 chg sides, 11 chg coeffs, 408 upgd conss, 0 impls, 343 clqs
   (0.1s) running MILP presolver
   (0.1s) MILP presolver found nothing
(round 9, medium)     1008 del vars, 83 del conss, 0 add conss, 0 chg bounds, 13 chg sides, 13 chg coeffs, 408 upgd conss, 0 impls, 343 clqs
   (0.3s) probing: 190/6187 (3.1%) - 0 fixings, 0 aggregations, 1182 implications, 0 bound changes
   (0.3s) probing aborted: 50/50 successive totally useless probings
presolving (10 rounds: 10 fast, 8 medium, 5 exhaustive):
 1008 deleted vars, 83 deleted constraints, 0 added constraints, 0 tightened bounds, 0 added holes, 13 changed sides, 13 changed coefficients
 0 implications, 1525 cliques
presolved problem has 6187 variables (6187 bin, 0 int, 0 impl, 0 cont) and 343 constraints
    343 constraints of type <setppc>
transformed objective value is always integral (scale: 1)
Presolving Time: 0.30
transformed 1/1 original solutions to the transformed problem space

 time | node  | left  |LP iter|LP it/n|mem/heur|mdpt |vars |cons |rows |cuts |sepa|confs|strbr|  dualbound   | primalbound  |  gap   | compl. 
  1.3s|     1 |     0 |  5936 |     - |    81M |   0 |6187 | 343 | 343 |   0 |  0 |   0 |   0 | 2.587761e+04 | 2.637400e+04 |   1.92%| unknown
  1.3s|     1 |     2 |  5936 |     - |    81M |   0 |6187 | 343 | 343 |   0 |  1 |   0 |   0 | 2.587761e+04 | 2.637400e+04 |   1.92%| unknown

SCIP Status        : solving was interrupted [node limit reached]
Solving Time (sec) : 1.28
Solving Nodes      : 1
Primal Bound       : +2.63740000000000e+04 (1 solutions)
Dual Bound         : +2.58776092678514e+04
Gap                : 1.92 %
wrote problem to file /mnt/lscratch/users/dferrario/Adaptive-Cutsel-MILP/TransformedInstances/air05__trans__seed__1.mps
